vasp.5.4.1 08Jul2015 (build Apr 24 2014 00:09:29) complex standard with constrain (TS)
 executed on IBM of Center for Computational Chemistry date 2018.03.17  20:51:13

 INCAR:
 POTCAR:    PAW_PBE O 08Apr2002
 POTCAR:    PAW_PBE Ru 04Feb2005
 POTCAR:    PAW_PBE Ir 06Sep2000
 POTCAR:    PAW_PBE O 08Apr2002
   VRHFIN =O: s2p4

   TITEL  = PAW_PBE O 08Apr2002
   POMASS =   16.000; ZVAL   =    6.000    mass and valenz
   ENMAX  =  400.000; ENMIN  =  300.000 eV

 POTCAR:    PAW_PBE Ru 04Feb2005
   VRHFIN =Ru: s1 d7

   TITEL  = PAW_PBE Ru 04Feb2005
   POMASS =  101.070; ZVAL   =    8.000    mass and valenz
   ENMAX  =  213.271; ENMIN  =  159.953 eV

 POTCAR:    PAW_PBE Ir 06Sep2000
   VRHFIN =Ir: s1d8

   TITEL  = PAW_PBE Ir 06Sep2000
   POMASS =  192.220; ZVAL   =    9.000    mass and valenz
   ENMAX  =  210.864; ENMIN  =  158.148 eV

 Optimization of the real space projectors (new method)

 maximal supplied QI-value         = 24.76
 optimisation between [QCUT,QGAM] = [ 11.39, 22.77] = [ 36.31,145.25] Ry
 Optimized for a Real-space Cutoff    1.10 Angstroem

   l    n(q)    QCUT    max X(q) W(low)/X(q) W(high)/X(q)  e(spline)
   0      7    11.387    20.381    0.22E-03    0.48E-03    0.18E-06
   0      7    11.387    15.268    0.22E-03    0.52E-03    0.19E-06
   1      7    11.387     5.964    0.22E-03    0.73E-03    0.24E-06
   1      7    11.387     5.382    0.19E-03    0.60E-03    0.21E-06
 Optimization of the real space projectors (new method)

[...]

   l    n(q)    QCUT    max X(q) W(low)/X(q) W(high)/X(q)  e(spline)
   2     10    11.327    61.733    0.89E-04    0.14E-03    0.14E-06
   2     10    11.327    59.886    0.91E-04    0.15E-03    0.14E-06
   0     11    11.327    23.358    0.43E-04    0.16E-04    0.34E-06
   0     11    11.327    11.320    0.30E-04    0.13E-04    0.28E-06
   1     10    11.327    14.765    0.66E-04    0.60E-04    0.10E-06
   1     10    11.327     8.283    0.48E-04    0.45E-04    0.80E-07
 Optimization of the real space projectors (new method)

 maximal supplied QI-value         = 14.36
 optimisation between [QCUT,QGAM] = [ 11.35, 22.84] = [ 36.05,146.02] Ry
 Optimized for a Real-space Cutoff    1.56 Angstroem

   l    n(q)    QCUT    max X(q) W(low)/X(q) W(high)/X(q)  e(spline)
   2     10    11.346   134.116    0.15E-03    0.19E-03    0.91E-06
   2     10    11.346   130.192    0.15E-03    0.19E-03    0.91E-06
   0     11    11.346    60.310    0.46E-04    0.13E-03    0.93E-06
   0     11    11.346    39.218    0.42E-04    0.12E-03    0.87E-06
   1     10    11.346    18.439    0.15E-03    0.81E-05    0.22E-06
   1     10    11.346    12.760    0.12E-03    0.76E-05    0.17E-06
  PAW_PBE O 08Apr2002                   :
  PAW_PBE Ru 04Feb2005                  :
  PAW_PBE Ir 06Sep2000                  :

 POSCAR: AutoCreatByScript
  positions in direct lattice
 exchange correlation table for  LEXCH =        8
   RHO(1)=    0.500       N(1)  =     2000
   RHO(2)=  100.500       N(2)  =     4000

 ion  position               nearest neighbor table
   1  0.089  0.355  0.000-  34 2.01  35 2.01
   2  0.589  0.355  0.000-  34 2.01  35 2.01
   3  0.339  0.047  0.056-  34 1.97  36 2.01  37 2.01
   4  0.839  0.047  0.056-  35 1.97  36 2.01  37 2.01
   5  0.339  0.664  0.056-  34 1.97  36 2.01  37 2.01
   6  0.839  0.664  0.056-  35 1.97  36 2.01  37 2.01
   7  0.089  0.355  0.111-  38 1.97  35 2.01  34 2.01
   8  0.589  0.355  0.111-  39 1.97  35 2.01  34 2.01
   9  0.589  0.855  0.145-  37 1.97  40 2.01  41 2.01
  10  0.089  0.855  0.145-  36 1.97  40 2.01  41 2.01
  11  0.339  0.164  0.200-  40 1.97  39 2.01  38 2.01
  12  0.839  0.164  0.200-  41 1.97  39 2.01  38 2.01
  13  0.339  0.547  0.200-  40 1.97  39 2.01  38 2.01
  14  0.839  0.547  0.200-  41 1.97  39 2.01  38 2.01
  15  0.089  0.855  0.256-  44 1.99  41 2.01  40 2.01
  16  0.589  0.855  0.256-  45 1.99  41 2.01  40 2.01
  17  0.089  0.355  0.289-  38 1.96  42 2.00  43 2.00
  18  0.589  0.355  0.289-  39 1.96  42 2.00  43 2.00
  19  0.339  0.047  0.346-  43 1.97  45 2.01  44 2.01
  20  0.839  0.047  0.346-  42 1.97  44 2.01  45 2.01
  21  0.339  0.664  0.346-  43 1.97  44 2.01  45 2.01
  22  0.839  0.664  0.346-  42 1.97  44 2.01  45 2.01
  23  0.089  0.356  0.400-  46 1.94  43 2.00  42 2.00
  24  0.589  0.356  0.400-  47 1.94  42 2.00  43 2.00
  25  0.089  0.855  0.436-  44 1.98  33 2.02  48 2.02
  26  0.589  0.855  0.436-  45 1.98  33 2.02  48 2.02
  27  0.339  0.165  0.494-  48 1.98  47 2.00  46 2.00
  28  0.839  0.165  0.494-  33 1.98  46 2.00  47 2.00
  29  0.339  0.546  0.494-  48 1.98  47 2.00  46 2.01
  30  0.839  0.546  0.494-  33 1.98  46 2.00  47 2.01
  31  0.089  0.855  0.547-  33 1.98  48 1.98
  32  0.589  0.855  0.547-  33 1.98  48 1.98
  33  0.839  0.855  0.493-  30 1.98  28 1.98  31 1.98  32 1.98  25 2.02  26 2.02  48 3.18  48 3.18

  34  0.339  0.355  0.056-   3 1.97   5 1.97   1 2.01   2 2.01   7 2.01   8 2.01  35 3.18  35 3.18

[...]

  46  0.089  0.355  0.488-  23 1.94  28 2.00  30 2.00  27 2.00  29 2.01  47 3.18  47 3.18
  47  0.589  0.355  0.488-  24 1.94  27 2.00  29 2.00  28 2.00  30 2.01  46 3.18  46 3.18
  48  0.339  0.855  0.493-  29 1.98  27 1.98  31 1.98  32 1.98  25 2.02  26 2.02  33 3.18  33 3.18

IMPORTANT INFORMATION: All symmetrisations will be switched off!
NOSYMM: (Re-)initialisation of all symmetry stuff for point group C_1.

 KPOINTS: mesh auto

Automatic generation of k-mesh.
Space group operators:
 irot       det(A)        alpha          n_x          n_y          n_z        tau_x        tau_y        tau_z
    1     1.000000     0.000000     1.000000     0.000000     0.000000     0.000000     0.000000     0.000000

 Subroutine IBZKPT returns following result:

 Found     10 irreducible k-points:

 Following reciprocal coordinates:
            Coordinates               Weight
  0.000000  0.000000  0.000000      1.000000
  0.250000  0.000000  0.000000      2.000000
  0.500000  0.000000  0.000000      1.000000
  0.000000  0.250000  0.000000      2.000000
  0.250000  0.250000  0.000000      2.000000
  0.500000  0.250000  0.000000      2.000000
 -0.250000  0.250000  0.000000      2.000000
  0.000000  0.500000  0.000000      1.000000
  0.250000  0.500000  0.000000      2.000000
  0.500000  0.500000  0.000000      1.000000

 Following cartesian coordinates:
            Coordinates               Weight
  0.000000  0.000000  0.000000      1.000000
  0.039295  0.000000  0.000000      2.000000
  0.078590  0.000000  0.000000      1.000000
  0.000000  0.039157  0.000000      2.000000
  0.039295  0.039157  0.000000      2.000000
  0.078590  0.039157  0.000000      2.000000
 -0.039295  0.039157  0.000000      2.000000
  0.000000  0.078315  0.000000      1.000000
  0.039295  0.078315  0.000000      2.000000
  0.078590  0.078315  0.000000      1.000000

 I would recommend the setting:
   dimension x,y,z NGX =    46 NGY =   47 NGZ =  161
 SYSTEM =
 POSCAR =  AutoCreatByScript

 Startparameter for this run:
   NWRITE =      2    write-flag & timer
   PREC   = accura    normal or accurate (medium, high low for compatibility)
   ISTART =      0    job   : 0-new  1-cont  2-samecut
   ICHARG =      2    charge: 1-file 2-atom 10-const
   ISPIN  =      2    spin polarized calculation?
   LNONCOLLINEAR =      F non collinear calculations
   LSORBIT =      F    spin-orbit coupling
   INIWAV =      1    electr: 0-lowe 1-rand  2-diag
   LASPH  =      F    aspherical Exc in radial PAW
   METAGGA=      F    non-selfconsistent MetaGGA calc.

 Electronic Relaxation 1
   ENCUT  =  500.0 eV  36.75 Ry    6.06 a.u.  11.60 11.64 40.15*2*pi/ulx,y,z
   ENINI  =  500.0     initial cutoff
   ENAUG  =  605.4 eV  augmentation charge cutoff
   NELM   =    300;   NELMIN=  3; NELMDL= -5     # of ELM steps
   EDIFF  = 0.1E-03   stopping-criterion for ELM
   LREAL  =      T    real-space projection
   NLSPLINE    = F    spline interpolate recip. space projectors
   LCOMPAT=      F    compatible to vasp.4.4
   GGA_COMPAT  = T    GGA compatible to vasp.4.4-vasp.4.6
   LMAXPAW     = -100 max onsite density
   LMAXMIX     =    2 max onsite mixed and CHGCAR
   VOSKOWN=      0    Vosko Wilk Nusair interpolation
   ROPT   =   -0.00025  -0.00025  -0.00025
 Ionic relaxation
   EDIFFG = -.5E-01   stopping-criterion for IOM
   NSW    =   1000    number of steps for IOM
   NBLOCK =      1;   KBLOCK =   1000    inner block; outer block
   IBRION =      2    ionic relax: 0-MD 1-quasi-New 2-CG
   NFREE  =      1    steps in history (QN), initial steepest desc. (CG)
   ISIF   =      2    stress and relaxation
   IWAVPR =     11    prediction:  0-non 1-charg 2-wave 3-comb
   ISYM   =      0    0-nonsym 1-usesym 2-fastsym
   LCORR  =      T    Harris-Foulkes like correction to forces

   POTIM  = 0.1000    time-step for ionic-motion
   TEIN   =    0.0    initial temperature
   TEBEG  =    0.0;   TEEND  =   0.0 temperature during run
   SMASS  =  -3.00    Nose mass-parameter (am)
   estimated Nose-frequenzy (Omega)   =  0.10E-29 period in steps =****** mass=  -0.925E-27a.u.
   SCALEE = 1.0000    scale energy and forces
   NPACO  =    256;   APACO  = 16.0  distance and # of slots for P.C.
   PSTRESS=    0.0 pullay stress

  Mass of Ions in am
   POMASS =  16.00101.07192.22
  Ionic Valenz
   ZVAL   =   6.00  8.00  9.00
  Atomic Wigner-Seitz radii
  virtual crystal weights
   VCA    =   1.00  1.00  1.00
   NELECT =     335.0000    total number of electrons
   NUPDOWN=      -1.0000    fix difference up-down

 DOS related values:
   EMIN   =  10.00;   EMAX   =-10.00  energy-range for DOS
   EFERMI =   0.00
   ISMEAR =     0;   SIGMA  =   0.05  broadening in eV -4-tet -1-fermi 0-gaus

 Electronic relaxation 2 (details)
   IALGO  =     68    algorithm
   LDIAG  =      T    sub-space diagonalisation (order eigenvalues)
   LSUBROT=      F    optimize rotation matrix (better conditioning)
   TURBO    =      0    0=normal 1=particle mesh
   IRESTART =      0    0=no restart 2=restart with 2 vectors
   NREBOOT  =      0    no. of reboots
   NMIN     =      0    reboot dimension
   EREF     =   0.00    reference energy to select bands
   IMIX   =      4    mixing-type and parameters
     AMIX     =   0.40;   BMIX     =  1.00
     AMIX_MAG =   1.60;   BMIX_MAG =  1.00
     AMIN     =   0.10
     WC   =   100.;   INIMIX=   1;  MIXPRE=   1;  MAXMIX= -45

 Intra band minimization:
   WEIMIN = 0.0010     energy-eigenvalue tresh-hold
   EBREAK =  0.11E-06  absolut break condition
   DEPER  =   0.30     relativ break condition

   TIME   =   0.40     timestep for ELM

  volume/ion in A,a.u.               =      18.64       125.76
  Fermi-wavevector in a.u.,A,eV,Ry     =   1.180040  2.229953 18.946041  1.392495
  Thomas-Fermi vector in A             =   2.316340

 Write flags
   LWAVE  =      F    write WAVECAR
   LCHARG =      F    write CHGCAR
   LVTOT  =      F    write LOCPOT, total local potential
   LVHAR  =      F    write LOCPOT, Hartree potential only
   LELF   =      F    write electronic localiz. function (ELF)
   LORBIT =      0    0 simple, 1 ext, 2 COOP (PROOUT)

 Dipole corrections
   LMONO  =      F    monopole corrections only (constant potential shift)
   LDIPOL =      F    correct potential (dipole corrections)
[...]
      31 -74.5715      32 -74.5735      33 -68.6303      34 -58.5207      35 -58.5241
      36 -58.2953      37 -58.2953      38 -58.6854      39 -58.6854      40 -58.7040
      41 -58.7037      42 -58.6837      43 -58.6877      44 -58.6767      45 -58.6763
      46 -58.2432      47 -58.2431      48 -58.4449

 E-fermi :   1.0295     XC(G=0):  -7.5050     alpha+bet : -6.7033

[...]

 spin component 2

[...]

 k-point    10 :       0.5000    0.5000    0.0000
  band No.  band energies     occupation
      1     -19.3020      1.00000
      2     -19.3004      1.00000
      3     -19.2005      1.00000
      4     -19.2003      1.00000
      5     -18.9561      1.00000
      6     -18.9494      1.00000
      7     -18.8903      1.00000
      8     -18.8898      1.00000
      9     -18.6811      1.00000
     10     -18.6805      1.00000
     11     -18.6706      1.00000
     12     -18.6482      1.00000
     13     -18.6316      1.00000
     14     -18.5898      1.00000
     15     -18.5517      1.00000
     16     -18.5439      1.00000
     17     -18.5226      1.00000
     18     -18.5219      1.00000
     19     -18.5203      1.00000
     20     -18.4809      1.00000
     21     -18.4515      1.00000
     22     -18.3984      1.00000
     23     -18.3878      1.00000
     24     -18.2921      1.00000
     25     -18.2497      1.00000
     26     -18.2493      1.00000
     27     -18.0157      1.00000
     28     -17.9667      1.00000
     29     -16.8808      1.00000
     30     -16.8717      1.00000
     31     -16.6670      1.00000
     32     -16.6670      1.00000
     33      -7.6702      1.00000
     34      -7.6675      1.00000
     35      -7.5153      1.00000
     36      -7.4897      1.00000
     37      -6.9792      1.00000
     38      -6.9679      1.00000
     39      -6.9144      1.00000
     40      -6.9082      1.00000
     41      -6.9079      1.00000
     42      -6.9053      1.00000
     43      -6.8851      1.00000
     44      -6.8607      1.00000
     45      -6.7806      1.00000
     46      -6.7801      1.00000
     47      -6.6136      1.00000
     48      -6.5166      1.00000
     49      -6.5165      1.00000
     50      -6.4701      1.00000
     51      -6.4659      1.00000
     52      -6.4389      1.00000
     53      -6.4366      1.00000
     54      -6.4062      1.00000
     55      -6.3347      1.00000
     56      -6.3214      1.00000
     57      -6.3153      1.00000
     58      -6.3132      1.00000
     59      -6.3027      1.00000
     60      -6.2965      1.00000
[...]
    214       8.2382      0.00000
    215       8.2388      0.00000
    216       8.2714      0.00000
    217       8.5266      0.00000
    218       8.5409      0.00000
    219       8.5455      0.00000
    220       8.5898      0.00000
    221       9.0345      0.00000
    222       9.0529      0.00000
    223       9.1315      0.00000
    224       9.1441      0.00000
    225       9.2862      0.00000
    226       9.3122      0.00000
    227       9.3147      0.00000
    228       9.4701      0.00000

[...]

 soft charge-density along one line, spin component           2
         0         1         2         3         4         5         6         7         8         9
 total charge-density along one line

------------------------ aborting loop because EDIFF is reached ----------------------------------------

         DFTD3 V3.0 Rev 1
 Edisp (eV)   -9.74697

 E6    (eV) :    -5.8735
 E8    (eV) :    -3.8735
 % E8        : 39.74

  FORCE on cell =-STRESS in cart. coord.  units (eV):
  Direction    XX          YY          ZZ          XY          YZ          ZX
  Alpha Z  1010.74268  1010.74268  1010.74268
  Ewald   79172.97688 76344.38141-92166.02672    -0.01858    -0.06576    -0.01207
  Hartree 84077.43423 82911.71240-80584.00156    -0.00410    -0.01295    -0.01045
  E(xc)   -1604.21733 -1609.46910 -1612.14438    -0.00002    -0.00170     0.00006
  Local  ************************167247.45743     0.02085     0.03182     0.01802
  n-local  -819.43320  -834.45584  -853.05338     0.01414    -0.00544    -0.00131
  augment   832.78883   850.27909   854.23170     0.00060     0.01225     0.00044
  Kinetic  5882.50581  6072.95701  6108.85797     0.00167     0.03477    -0.00499
  Fock        0.00000     0.00000     0.00000     0.00000     0.00000     0.00000
  vdW        -9.90601   -10.03100    -8.08334     0.00000    -0.00007     0.00000
  Total     -10.10554    -4.80371    -2.01960     0.01455    -0.00709    -0.01031
  in kB     -18.10052    -8.60415    -3.61741     0.02607    -0.01269    -0.01846

 VOLUME and BASIS-vectors are now :
  energy-cutoff  :      500.00
  volume of cell :      894.50
      direct lattice vectors                 reciprocal lattice vectors
     6.362156930  0.000000000  0.000000000     0.157179399  0.000000000  0.000000000
     0.000000000  6.384482990  0.000000000     0.000000000  0.156629754  0.000000000
     0.000000000  0.000000000 22.021598410     0.000000000  0.000000000  0.045409964

  length of vectors
     6.362156930  6.384482990 22.021598410     0.157179399  0.156629754  0.045409964

 FORCES acting on ions
    electron-ion (+dipol)            ewald-force                    non-local-force                 convergence-correction
   -.752E-02 0.354E-03 0.172E+04   0.851E-03 0.574E-04 -.175E+04   -.788E-03 -.652E-03 0.283E+02   0.552E-02 0.593E-05 0.479E-01
   0.767E-02 0.359E-03 0.172E+04   -.852E-03 0.573E-04 -.175E+04   0.766E-03 -.659E-03 0.283E+02   -.552E-02 0.552E-05 0.479E-01
   -.317E-03 0.511E+01 0.141E+04   0.989E-04 -.347E+01 -.141E+04   0.457E-02 -.166E+01 -.417E+00   0.148E-03 0.456E-01 0.274E+00
   0.135E-03 0.511E+01 0.141E+04   -.899E-04 -.347E+01 -.141E+04   0.460E-02 -.165E+01 -.425E+00   -.147E-03 0.402E-01 0.274E+00
   -.319E-03 -.511E+01 0.141E+04   0.981E-04 0.347E+01 -.141E+04   -.897E-04 0.166E+01 -.418E+00   0.147E-03 -.456E-01 0.274E+00
   0.133E-03 -.511E+01 0.141E+04   -.891E-04 0.347E+01 -.141E+04   -.533E-04 0.166E+01 -.426E+00   -.148E-03 -.402E-01 0.274E+00
   -.712E-02 -.186E-02 0.100E+04   0.417E-02 0.792E-03 -.100E+04   -.622E-02 0.135E-02 0.595E+00   0.566E-02 0.429E-05 0.471E+00
   0.736E-02 -.184E-02 0.100E+04   -.441E-02 0.789E-03 -.100E+04   0.534E-02 0.135E-02 0.595E+00   -.565E-02 0.607E-05 0.471E+00
   0.106E-01 0.158E-02 0.866E+03   -.843E-02 -.652E-03 -.864E+03   -.692E-02 0.118E-02 -.212E+01   -.109E-02 -.156E-04 0.528E+00
   -.106E-01 0.166E-02 0.866E+03   0.832E-02 -.672E-03 -.864E+03   0.584E-02 0.111E-02 -.212E+01   0.112E-02 -.151E-04 0.529E+00
   -.511E-02 0.346E+02 0.462E+03   0.521E-02 -.361E+02 -.462E+03   0.153E-02 0.151E+01 -.297E-01   -.195E-03 0.735E-02 0.359E+00
   -.228E-02 0.346E+02 0.462E+03   0.186E-02 -.361E+02 -.462E+03   0.167E-02 0.151E+01 -.745E-01   0.198E-03 0.876E-02 0.360E+00
   -.511E-02 -.346E+02 0.462E+03   0.518E-02 0.361E+02 -.462E+03   0.383E-02 -.150E+01 -.301E-01   -.195E-03 -.736E-02 0.359E+00
   -.235E-02 -.346E+02 0.462E+03   0.191E-02 0.361E+02 -.462E+03   0.394E-02 -.151E+01 -.753E-01   0.197E-03 -.879E-02 0.360E+00
   -.128E+00 -.276E-01 0.651E+02   0.102E+00 0.285E-01 -.622E+02   0.180E-01 0.117E-02 -.263E+01   0.582E-02 0.124E-03 0.251E+00
   0.129E+00 -.290E-01 0.650E+02   -.105E+00 0.299E-01 -.622E+02   -.148E-01 0.105E-02 -.263E+01   -.579E-02 0.123E-03 0.249E+00
   -.172E+00 0.930E-01 -.874E+02   0.196E+00 -.113E+00 0.857E+02   -.135E-01 0.186E-01 0.167E+01   -.114E-01 0.774E-03 0.765E-01
   0.169E+00 0.966E-01 -.874E+02   -.189E+00 -.117E+00 0.857E+02   0.133E-01 0.190E-01 0.167E+01   0.102E-01 0.759E-03 0.765E-01
   0.987E-03 -.302E+02 -.485E+03   -.340E-02 0.317E+02 0.485E+03   0.676E-02 -.142E+01 -.195E+00   -.198E-02 -.566E-01 -.164E+00
   0.310E-01 -.306E+02 -.486E+03   -.380E-01 0.321E+02 0.486E+03   0.773E-02 -.150E+01 -.278E+00   0.800E-03 -.267E-01 -.164E+00
   0.886E-02 0.301E+02 -.484E+03   -.118E-01 -.316E+02 0.485E+03   0.549E-02 0.143E+01 -.177E+00   -.202E-02 0.562E-01 -.162E+00
   0.203E-01 0.304E+02 -.485E+03   -.262E-01 -.320E+02 0.486E+03   0.572E-02 0.152E+01 -.259E+00   0.830E-03 0.262E-01 -.163E+00
   0.831E+00 -.470E-02 -.872E+03   -.812E+00 0.164E+00 0.870E+03   -.210E-01 -.152E+00 0.221E+01   -.250E-02 -.281E-02 -.366E+00
   -.808E+00 -.204E-02 -.872E+03   0.785E+00 0.169E+00 0.870E+03   0.280E-01 -.159E+00 0.221E+01   0.137E-02 -.343E-02 -.366E+00
   0.947E+01 -.952E-01 -.102E+04   -.130E+02 0.109E+00 0.102E+04   0.343E+01 -.146E-01 -.263E+01   0.996E-01 0.103E-03 -.394E+00
   -.949E+01 -.997E-01 -.102E+04   0.130E+02 0.114E+00 0.102E+04   -.343E+01 -.128E-01 -.263E+01   -.993E-01 -.339E-03 -.394E+00
   0.437E-02 -.143E+01 -.143E+04   -.478E-02 -.661E-01 0.143E+04   0.904E-03 0.154E+01 -.411E+01   -.122E-04 -.359E-01 -.249E+00
   0.175E-01 0.812E+01 -.143E+04   -.229E-01 -.134E+02 0.143E+04   0.798E-02 0.522E+01 -.387E+01   -.126E-02 0.208E-01 -.339E+00
   0.105E-01 0.142E+01 -.143E+04   -.137E-01 0.685E-01 0.143E+04   0.461E-02 -.153E+01 -.411E+01   0.196E-03 0.367E-01 -.250E+00
   0.162E-01 -.809E+01 -.143E+04   -.212E-01 0.133E+02 0.143E+04   0.661E-02 -.521E+01 -.388E+01   -.531E-04 -.200E-01 -.341E+00
   -.729E+01 -.861E-02 -.171E+04   0.783E+01 0.162E-01 0.174E+04   -.598E+00 -.736E-02 -.252E+02   0.836E-01 0.159E-03 -.987E-01
   0.727E+01 -.200E-01 -.171E+04   -.781E+01 0.330E-01 0.174E+04   0.592E+00 -.111E-01 -.252E+02   -.831E-01 -.719E-03 -.962E-01
   -.654E-01 0.227E-01 -.183E+04   0.620E-01 -.227E-01 0.183E+04   0.399E-02 -.790E-04 -.247E+01   -.158E-03 -.139E-02 -.388E+00
   -.157E-03 -.370E-03 0.206E+04   0.131E-03 0.284E-03 -.207E+04   -.106E-02 -.615E-03 0.146E+01   0.248E-03 0.111E-04 0.416E+00
   0.573E-03 -.425E-03 0.206E+04   -.102E-03 0.285E-03 -.207E+04   -.108E-02 -.519E-03 0.146E+01   -.254E-03 0.183E-04 0.416E+00
   -.289E-02 0.150E-03 0.221E+04   0.204E-02 -.247E-03 -.221E+04   -.103E-01 0.247E-03 -.260E+01   0.386E-02 -.149E-04 0.411E+00
   0.302E-02 0.153E-03 0.221E+04   -.205E-02 -.246E-03 -.221E+04   0.659E-02 0.245E-03 -.260E+01   -.386E-02 -.152E-04 0.411E+00
   -.346E-01 -.287E-01 0.693E+03   0.331E-01 0.285E-01 -.694E+03   0.141E-01 -.340E-03 0.752E-01   0.982E-03 0.397E-04 0.530E+00
   0.636E-01 -.288E-01 0.693E+03   -.610E-01 0.286E-01 -.694E+03   -.114E-01 -.369E-03 0.752E-01   -.102E-02 0.389E-04 0.529E+00
   -.383E-02 -.510E-02 0.695E+03   0.493E-02 0.515E-02 -.695E+03   -.375E-03 -.103E-02 -.741E+00   -.750E-03 -.131E-04 0.586E+00
   0.329E-02 -.499E-02 0.695E+03   -.443E-02 0.506E-02 -.695E+03   0.215E-03 -.965E-03 -.734E+00   0.761E-03 0.272E-04 0.582E+00
   -.176E-01 0.283E+00 -.715E+03   0.173E-01 -.281E+00 0.715E+03   0.856E-03 -.153E-02 0.542E+00   0.887E-03 -.459E-03 -.209E+00
   -.322E-01 0.285E+00 -.715E+03   0.330E-01 -.282E+00 0.714E+03   0.106E-02 -.165E-02 0.538E+00   0.100E-04 -.145E-03 -.195E+00
   -.538E+00 -.125E+00 -.725E+03   0.490E+00 0.122E+00 0.726E+03   0.189E-01 0.296E-02 -.452E+00   0.356E-01 0.554E-03 -.245E+00
   0.462E+00 -.135E+00 -.725E+03   -.414E+00 0.132E+00 0.726E+03   -.171E-01 0.352E-02 -.452E+00   -.345E-01 0.521E-03 -.243E+00
   -.151E+01 0.128E+00 -.216E+04   0.126E+01 -.127E+00 0.216E+04   0.188E+00 0.336E-03 0.325E+01   0.505E-01 -.101E-02 -.394E+00
   0.147E+01 0.150E+00 -.216E+04   -.121E+01 -.148E+00 0.216E+04   -.188E+00 -.575E-03 0.325E+01   -.500E-01 -.148E-02 -.394E+00
   0.103E+00 0.391E-01 -.205E+04   -.100E+00 -.400E-01 0.205E+04   -.112E-02 0.124E-02 -.125E+01   -.125E-02 0.269E-04 -.443E+00
   -.259E-01 0.281E+00 0.161E+02   0.923E-13 -.450E-13 0.909E-12   0.706E-01 -.241E+00 -.192E+02   -.385E-02 -.801E-02 0.310E+01

 POSITION                                       TOTAL-FORCE (eV/Angst)
      0.56693      2.26943      0.00000        -0.002791     -0.000901      0.615604
      3.74801      2.26943      0.00000         0.001216     -0.000903      0.615629
      2.15747      0.29962      1.22242         0.003646      0.032634     -0.641536
      5.33855      0.29962      1.22242         0.003649      0.031364     -0.642613
      2.15747      4.23923      1.22242        -0.001013     -0.030897     -0.642609
      5.33855      4.23923      1.22242        -0.001007     -0.029598     -0.643688
      0.56693      2.26943      2.44484        -0.004366     -0.000377      0.241361
      3.74801      2.26943      2.44484         0.001789     -0.000358      0.241378
      3.74801      5.46167      3.19225        -0.006686      0.001418     -0.131985
      0.56693      5.46167      3.19225         0.003777      0.001419     -0.132078
      2.15747      1.04699      4.41467         0.000590      0.023202     -0.035828
      5.33855      1.04699      4.41467         0.000603      0.026818     -0.042278
      2.15747      3.49187      4.41467         0.002855     -0.023223     -0.036211
      5.33855      3.49187      4.41467         0.002855     -0.026892     -0.042663
      0.56693      5.46167      5.63709        -0.002615      0.001467      0.505991
      3.74801      5.46167      5.63709         0.002029      0.001424      0.507442
      0.56721      2.26891      6.37615        -0.001936     -0.000905      0.003390
      3.74833      2.26890      6.37615         0.002309     -0.000838      0.003566
      2.15770      0.29810      7.62430         0.001514      0.000608      0.010664
      5.33878      0.29820      7.62349         0.000633     -0.000625     -0.007437
      2.15769      4.24069      7.62339        -0.000265     -0.000584      0.008852
      5.33877      4.24057      7.62258        -0.000266      0.000843     -0.008977
      0.56612      2.27170      8.80926        -0.004948      0.003640      0.026568
      3.74960      2.27181      8.80926         0.005560      0.003899      0.026733
      0.53942      5.46191      9.59971         0.046028     -0.001444     -0.005560
      3.77591      5.46191      9.60012        -0.044857      0.000442     -0.008416
      2.15766      1.05673     10.88026        -0.000370      0.003354     -0.024481
      5.33884      1.06151     10.89481         0.000514     -0.005966      0.038067
      2.15772      3.48187     10.88036         0.000708     -0.003780     -0.022834
      5.33882      3.47726     10.89504         0.000757      0.005415      0.039014
      0.53409      5.46181     12.00377         0.025950     -0.000302     -0.022199
      3.78119      5.46199     12.00307        -0.028698      0.000480     -0.017382
      5.33887      5.46153     10.90332        -0.000462     -0.002123      0.035894
      2.15747      2.26943      1.22242        -0.001686     -0.001357     -0.841518
      5.33855      2.26943      1.22242        -0.001713     -0.001308     -0.836024
      0.56693      5.46167      1.22242        -0.008172     -0.000532      1.494689
      3.74801      5.46167      1.22242         0.002852     -0.000530      1.494633
      0.56693      2.26943      4.41467         0.012762     -0.001190     -0.337804
      3.74801      2.26943      4.41467        -0.010701     -0.001214     -0.337791
      2.15747      5.46167      4.41467        -0.000877     -0.001654     -0.230406
      5.33855      5.46167      4.41467        -0.001007     -0.001540     -0.200843
      5.33885      2.26927      7.59651         0.000535      0.000208      0.008253
      2.15776      2.26928      7.59798         0.001067      0.000169      0.010201
      0.56629      5.46156      7.63030         0.004336      0.000286     -0.004795
      3.74895      5.46155      7.63046        -0.003995      0.000880     -0.004421
      0.56352      2.26916     10.75382        -0.020993      0.000234      0.012284
      3.75176      2.26916     10.75383         0.021515     -0.000780      0.012131
      2.15759      5.46150     10.83369        -0.000627     -0.000386     -0.049969
    total drift:                                0.040762      0.031982      0.005505
  FORCES: max atom, RMS     0.049974    0.019272
  Number: max atom                48
  FORCE total and by dimension    0.133519    0.049969

  FREE ENERGIE OF THE ION-ELECTRON SYSTEM (eV)
  free  energy   TOTEN  =      -340.99033231 eV

  energy  without entropy=     -340.95381481  energy(sigma->0) =     -340.97207356

 d Force = 0.8286044E-03[ 0.494E-03, 0.116E-02]  d Energy = 0.3299525E-03 0.499E-03
 d Force = 0.6101708E+01[ 0.611E+01, 0.610E+01]  d Ewald  = 0.6101707E+01 0.151E-05

 Conjugate gradient step on ions:
 trial-energy change:   -0.000330  1 .order   -0.000829   -0.001163   -0.000494
  (g-gl).g = 0.431E-03      g.g   = 0.442E-03  gl.gl    = 0.564E-03
 g(Force)  = 0.442E-03   g(Stress)= 0.000E+00 ortho     =-0.322E-04
 gamma     =   0.76349
 trial     =   2.78407
 opt step  =   4.84091  (harmonic =   4.84091) maximal distance =0.00726588
 next E    =  -340.991014   (d E  =  -0.00101)

 reached required accuracy - stopping structural energy minimisation